151
478
397
22
150
372
371
191
189
362
162
52
368
107
183
285
356
48
268
130
427
180
138
159
306
379
202
476
92
285
140
261
163
97
273
218
131
391
113
476
101
244
168
42
201
205
221
350
300
497
352
302
403
234
43
118
421
221
431
217
63
98
300
230
445
470
399
213
200
396
140
189
293
221
306
195
352
487
134
153
97
148
10
44
351
7
410
9
435
359
492
81
491
294
456
158
175
321
79
213
41
2
329
59
55
135
173
440
56
8
227
395
30
265
206
276
403
68
278
116
128
94
222
361
410
430
460
185
474
258
402
154
198
200
151
194
156
12
380
433
143
432
435
460
57
105
421
450
247
26
88
141
488
